Version identifier: 20.1.0.0 | 2020-11-10 | 9bedb6d68
Tried aggregator 3 times.
MIP Presolve eliminated 1283 rows and 700 columns.
MIP Presolve modified 2514 coefficients.
Aggregator did 131 substitutions.
Reduced MIP has 992 rows, 826 columns, and 3106 nonzeros.
Reduced MIP has 194 binaries, 632 generals, 0 SOSs, and 0 indicators.
Presolve time = 0.02 sec. (6.18 ticks)
Found incumbent of value 15.000000 after 0.02 sec. (9.82 ticks)
Probing fixed 28 vars, tightened 249 bounds.
Probing time = 0.00 sec. (1.09 ticks)
Tried aggregator 2 times.
Detecting symmetries...
MIP Presolve eliminated 388 rows and 63 columns.
MIP Presolve modified 85 coefficients.
Aggregator did 19 substitutions.
Reduced MIP has 585 rows, 744 columns, and 1826 nonzeros.
Reduced MIP has 324 binaries, 420 generals, 0 SOSs, and 0 indicators.
Presolve time = 0.01 sec. (2.78 ticks)
Probing time = 0.00 sec. (0.23 ticks)
Clique table members: 118.
MIP emphasis: balance optimality and feasibility.
MIP search method: dynamic search.
Parallel mode: deterministic, using up to 24 threads.
Root relaxation solution time = 0.00 sec. (2.48 ticks)

        Nodes                                         Cuts/
   Node  Left     Objective  IInf  Best Integer    Best Bound    ItCnt     Gap

*     0+    0                           15.0000        0.0000           100.00%
      0     0        0.3333    52       15.0000        0.3333      241   97.78%
      0     0        1.1224   177       15.0000      Cuts: 30      414   92.52%
      0     0        1.5836   222       15.0000      Cuts: 72      521   89.44%
      0     0        1.8633   242       15.0000      Cuts: 49      583   87.58%
      0     0        2.1112   220       15.0000      Cuts: 77      634   85.93%
      0     0        2.1112   223       15.0000      Cuts: 30      658   85.93%
      0     0        2.1711   180       15.0000      Cuts: 83      762   85.53%
      0     0        2.7917   192       15.0000      Cuts: 73      832   81.39%
      0     0        2.9444   210       15.0000      Cuts: 71      879   80.37%
      0     0        3.0182   215       15.0000      Cuts: 45      909   79.88%
      0     0        3.0182   222       15.0000      Cuts: 54      940   79.88%
*     0+    0                            9.0000        3.0182            66.46%
*     0+    0                            8.0000        3.0182            62.27%
      0     0        cutoff              8.0000        8.0000      940    0.00%
Elapsed time = 0.37 sec. (107.11 ticks, tree = 0.01 MB, solutions = 3)

Clique cuts applied:  3
Implied bound cuts applied:  11
Flow cuts applied:  1
Mixed integer rounding cuts applied:  8
Zero-half cuts applied:  32
Gomory fractional cuts applied:  2

Root node processing (before b&c):
  Real time             =    0.37 sec. (107.19 ticks)
Parallel b&c, 24 threads:
  Real time             =    0.00 sec. (0.00 ticks)
  Sync time (average)   =    0.00 sec.
  Wait time (average)   =    0.00 sec.
                          ------------
Total (root+branch&cut) =    0.37 sec. (107.19 ticks)

Solution status = Optimal
Solution LB = 8
Solution UB = 8
Runtime = 0.3745 seconds
	Command being timed: "/home/min/git_repos/CS598MEBProject/CNT-ILP/build/cnt -s 2 ./output/k6_n30/simC_c1_k6_n30_u3_s2_del04.input-left.cnp"
	User time (seconds): 5.78
	System time (seconds): 0.06
	Percent of CPU this job got: 1420%
	Elapsed (wall clock) time (h:mm:ss or m:ss): 0:00.41
	Average shared text size (kbytes): 0
	Average unshared data size (kbytes): 0
	Average stack size (kbytes): 0
	Average total size (kbytes): 0
	Maximum resident set size (kbytes): 59768
	Average resident set size (kbytes): 0
	Major (requiring I/O) page faults: 0
	Minor (reclaiming a frame) page faults: 11929
	Voluntary context switches: 2822
	Involuntary context switches: 948
	Swaps: 0
	File system inputs: 0
	File system outputs: 16
	Socket messages sent: 0
	Socket messages received: 0
	Signals delivered: 0
	Page size (bytes): 4096
	Exit status: 0
